100 100 100
50
47 13 31
31 18 11
16 84 99
51 83 54
33 11 45
44 4 50
18 13 39
2 31 31
1 17 1
85 77 53
14 38 22
45 45 39
24 33 33
45 18 32
90 6 82
10 30 15
9 32 22
74 83 6
73 68 10
95 66 2
3 26 20
12 6 28
79 39 73
5 44 41
21 21 8
81 97 7
24 11 50
71 78 23
88 86 64
11 29 24
13 25 1
77 77 75
98 27 81
50 25 48
7 22 30
4 50 32
36 40 14
100 73 63
21 44 50
5 21 16
30 48 5
20 48 11
90 50 97
62 70 82
13 22 5
17 5 12
38 50 45
45 73 86
2 43 45
7 95 98
